(set-logic QF_SLIA)
(declare-fun var0 () String)
(assert (not (str.in_re var0 (re.++ ((_ re.loop 6 321) (re.++ (re.union (str.to_re "nwZ") (re.union (str.to_re "&k.") (re.union (str.to_re "fp'") (str.to_re "N")))) (re.++ (re.union (str.to_re "4=R") (re.union (str.to_re "[7") (re.union (str.to_re "3tL") (str.to_re "~!")))) (re.++ (re.union (str.to_re "mws") (re.union (str.to_re "n") (re.union (str.to_re "X\u0022<") (str.to_re "&S(")))) (re.union (str.to_re "m") (re.union (str.to_re "U*I") (re.union (str.to_re "9S") (str.to_re "^'R")))))))) (re.++ ((_ re.loop 7 475) (re.++ (re.union (str.to_re "=Jl") (re.union (str.to_re "J") (re.union (str.to_re "6$m") (str.to_re "#|_")))) (re.++ (re.union (str.to_re "#") (re.union (str.to_re "Qk") (re.union (str.to_re "!!U") (str.to_re "D/")))) (re.++ (re.union (str.to_re ".") (re.union (str.to_re "9Nt") (re.union (str.to_re "6Mn") (str.to_re "e")))) (re.union (str.to_re "|=B") (re.union (str.to_re "/~") (re.union (str.to_re "+") (str.to_re "/")))))))) (re.++ ((_ re.loop 20 717) (re.++ (re.union (str.to_re "a:") (re.union (str.to_re "d") (re.union (str.to_re "dMW") (str.to_re "DG")))) (re.++ (re.union (str.to_re "EE`") (re.union (str.to_re "B") (re.union (str.to_re "J") (str.to_re "lG")))) (re.++ (re.union (str.to_re ",6") (re.union (str.to_re "F(F") (re.union (str.to_re "{Z") (str.to_re "}")))) (re.union (str.to_re "*Nq") (re.union (str.to_re "R") (re.union (str.to_re "zr") (str.to_re "e=4")))))))) ((_ re.loop 13 968) (re.++ (re.union (str.to_re "*y") (re.union (str.to_re "*oo") (re.union (str.to_re "Nz") (str.to_re "DmO")))) (re.++ (re.union (str.to_re "Yu") (re.union (str.to_re "Qt") (re.union (str.to_re "+%\\") (str.to_re "4_o")))) (re.++ (re.union (str.to_re ";1p") (re.union (str.to_re "0k") (re.union (str.to_re "8%") (str.to_re "+5")))) (re.union (str.to_re "(JV") (re.union (str.to_re "#") (re.union (str.to_re "a") (str.to_re ")p"))))))))))))))
(assert (not (str.in_re var0 (re.++ ((_ re.loop 16 208) (re.++ (re.union (str.to_re "qF") (re.union (str.to_re "U") (re.union (str.to_re "'") (str.to_re "7")))) (re.++ (re.union (str.to_re "E") (re.union (str.to_re "r") (re.union (str.to_re "%1]") (str.to_re "k")))) (re.++ (re.union (str.to_re "vf<") (re.union (str.to_re "p") (re.union (str.to_re "o2X") (str.to_re "c>*")))) (re.union (str.to_re "046") (re.union (str.to_re "pq*") (re.union (str.to_re "'") (str.to_re "}G]")))))))) (re.++ ((_ re.loop 1 153) (re.++ (re.union (str.to_re "\u0022*") (re.union (str.to_re "^S") (re.union (str.to_re "'c") (str.to_re "s")))) (re.++ (re.union (str.to_re "veR") (re.union (str.to_re "6S") (re.union (str.to_re "Ik") (str.to_re "plY")))) (re.++ (re.union (str.to_re "dM") (re.union (str.to_re "xi]") (re.union (str.to_re "<2") (str.to_re "_")))) (re.union (str.to_re "+_{") (re.union (str.to_re "%V$") (re.union (str.to_re "R;`") (str.to_re "\u0022+#")))))))) (re.++ ((_ re.loop 2 879) (re.++ (re.union (str.to_re "}NP") (re.union (str.to_re "mq") (re.union (str.to_re "P*") (str.to_re "x(^")))) (re.++ (re.union (str.to_re "DH?") (re.union (str.to_re "PP") (re.union (str.to_re "})") (str.to_re "j0r")))) (re.++ (re.union (str.to_re "PPj") (re.union (str.to_re "XX=") (re.union (str.to_re "Os6") (str.to_re "0")))) (re.union (str.to_re "]") (re.union (str.to_re "]&") (re.union (str.to_re "EhH") (str.to_re "!{")))))))) ((_ re.loop 10 886) (re.++ (re.union (str.to_re "7") (re.union (str.to_re "04w") (re.union (str.to_re "!'y") (str.to_re "N")))) (re.++ (re.union (str.to_re "A*") (re.union (str.to_re "U.J") (re.union (str.to_re "L") (str.to_re "yh")))) (re.++ (re.union (str.to_re "O(t") (re.union (str.to_re "R") (re.union (str.to_re "TBq") (str.to_re ">")))) (re.union (str.to_re "n") (re.union (str.to_re "S$") (re.union (str.to_re "Pye") (str.to_re "d"))))))))))))))
(assert (not (str.in_re var0 (re.++ (re.* re.allchar) (re.++ (re.union (str.to_re "<") (re.union (str.to_re ">") (re.union (str.to_re "'") (re.union (str.to_re "\u0022") (str.to_re "&"))))) (re.* re.allchar))))))
(assert (<= 50 (str.len var0)))
(check-sat)
(get-model)
